&PROJWFC
  prefix= 'crte2',
  outdir= './tmp',
  filpdos= 'cr_pdos.dat'
/
