&INPUTPP
  outdir = './tmp',
  prefix = 'crte2',
  plot_num = 0,
/
&PLOT
  iflag = 3,
  output_format = 6,
  fileout = 'bilayer.cube'
/
