&INPUTPP
  outdir = './tmp_bot',
  prefix = '/crte2',
  plot_num = 0,
/
&PLOT
  iflag = 3,
  output_format = 6,
  fileout = 'bot.cube'
/
