&control 
  calculation='bands',
  prefix='./crte2',
  pseudo_dir = './'
  outdir = './'
/
&system
  ibrav = 0,
  nat= 3,
  A=1,
  ntyp= 2,
  lda_plus_u =.true.
  Hubbard_U(1)=2.0,
  vdw_corr = 'Grimme-D2'
  ecutwfc = 80,
  ecutrho = 800,
  nosym=.true.
  occupations = 'smearing'
  smearing = 'gauss'
  degauss = 0.005,
  nspin=2,
  starting_magnetization(1) = 1.0
/
&electrons
electron_maxstep = 200
mixing_beta = 0.3
diagonalization = 'david'
mixing_mode='local-TF'
diago_david_ndim=4
/
ATOMIC_SPECIES
Cr   51.99610  Cr.pbe.UPF 
Te  127.60000  Te.pbe.UPF
CELL_PARAMETERS
    3.8499999046         0.0000000000         0.0000000000
   -1.9249999523         3.3341977220         0.0000000000
    0.0000000000         0.0000000000        33.0000000000
ATOMIC_POSITIONS (angstrom)
Cr     0.000000000         0.000000000        16.194089592
Te     1.923402098         1.110454593        14.641439617
Te    -0.000019161         2.220942375        17.746739566
K_POINTS {crystal_b}
4
0.500000     0.00000     0.0000 90
0.000000     0.00000     0.0000 90
0.66666666667     -0.33333     0.0000 90
0.500000     0.00000     0.0000 90

