&PROJWFC
  prefix= './crte2',
  outdir= './',
  filpdos= 'al_pdos.dat'
/
