&control 
  calculation='nscf',
  prefix='./crte2',
  pseudo_dir = './'
  outdir = './'
/
&system
  ibrav = 0,
  nat= 3,
  A=1,
  ntyp= 2,
  lda_plus_u =.true.
  Hubbard_U(1)=2.0,
  vdw_corr = 'Grimme-D2'
  ecutwfc = 80,
  ecutrho = 800,
  nbnd= 64,
  nosym=.true.
  occupations = 'smearing'
  smearing = 'gauss'
  degauss = 0.005,
  nspin=2,
  starting_magnetization(1) = 1.0
/
&electrons
electron_maxstep = 200
mixing_beta = 0.3
diagonalization = 'david'
mixing_mode='local-TF'
diago_david_ndim=4
/
ATOMIC_SPECIES
Cr   51.99610  Cr.pbe.UPF 
Te  127.60000  Te.pbe.UPF
CELL_PARAMETERS
    3.8499999046         0.0000000000         0.0000000000
   -1.9249999523         3.3341977220         0.0000000000
    0.0000000000         0.0000000000        33.0000000000
ATOMIC_POSITIONS (angstrom)
Cr     0.000000000         0.000000000        16.194089592
Te     1.923402098         1.110454593        14.641439617
Te    -0.000019161         2.220942375        17.746739566
K_POINTS crystal
1296
0.000000000000000000e+00 0.000000000000000000e+00 0.000000000000000000e+00 7.716049382716048954e-04
0.000000000000000000e+00 2.777777777777777624e-02 0.000000000000000000e+00 7.716049382716048954e-04
0.000000000000000000e+00 5.555555555555555247e-02 0.000000000000000000e+00 7.716049382716048954e-04
0.000000000000000000e+00 8.333333333333332871e-02 0.000000000000000000e+00 7.716049382716048954e-04
0.000000000000000000e+00 1.111111111111111049e-01 0.000000000000000000e+00 7.716049382716048954e-04
0.000000000000000000e+00 1.388888888888888951e-01 0.000000000000000000e+00 7.716049382716048954e-04
0.000000000000000000e+00 1.666666666666666574e-01 0.000000000000000000e+00 7.716049382716048954e-04
0.000000000000000000e+00 1.944444444444444198e-01 0.000000000000000000e+00 7.716049382716048954e-04
0.000000000000000000e+00 2.222222222222222099e-01 0.000000000000000000e+00 7.716049382716048954e-04
0.000000000000000000e+00 2.500000000000000000e-01 0.000000000000000000e+00 7.716049382716048954e-04
0.000000000000000000e+00 2.777777777777777901e-01 0.000000000000000000e+00 7.716049382716048954e-04
0.000000000000000000e+00 3.055555555555555247e-01 0.000000000000000000e+00 7.716049382716048954e-04
0.000000000000000000e+00 3.333333333333333148e-01 0.000000000000000000e+00 7.716049382716048954e-04
0.000000000000000000e+00 3.611111111111111049e-01 0.000000000000000000e+00 7.716049382716048954e-04
0.000000000000000000e+00 3.888888888888888395e-01 0.000000000000000000e+00 7.716049382716048954e-04
0.000000000000000000e+00 4.166666666666666297e-01 0.000000000000000000e+00 7.716049382716048954e-04
0.000000000000000000e+00 4.444444444444444198e-01 0.000000000000000000e+00 7.716049382716048954e-04
0.000000000000000000e+00 4.722222222222222099e-01 0.000000000000000000e+00 7.716049382716048954e-04
0.000000000000000000e+00 5.000000000000000000e-01 0.000000000000000000e+00 7.716049382716048954e-04
0.000000000000000000e+00 5.277777777777777901e-01 0.000000000000000000e+00 7.716049382716048954e-04
0.000000000000000000e+00 5.555555555555555802e-01 0.000000000000000000e+00 7.716049382716048954e-04
0.000000000000000000e+00 5.833333333333332593e-01 0.000000000000000000e+00 7.716049382716048954e-04
0.000000000000000000e+00 6.111111111111110494e-01 0.000000000000000000e+00 7.716049382716048954e-04
0.000000000000000000e+00 6.388888888888888395e-01 0.000000000000000000e+00 7.716049382716048954e-04
0.000000000000000000e+00 6.666666666666666297e-01 0.000000000000000000e+00 7.716049382716048954e-04
0.000000000000000000e+00 6.944444444444444198e-01 0.000000000000000000e+00 7.716049382716048954e-04
0.000000000000000000e+00 7.222222222222222099e-01 0.000000000000000000e+00 7.716049382716048954e-04
0.000000000000000000e+00 7.500000000000000000e-01 0.000000000000000000e+00 7.716049382716048954e-04
0.000000000000000000e+00 7.777777777777776791e-01 0.000000000000000000e+00 7.716049382716048954e-04
0.000000000000000000e+00 8.055555555555554692e-01 0.000000000000000000e+00 7.716049382716048954e-04
0.000000000000000000e+00 8.333333333333332593e-01 0.000000000000000000e+00 7.716049382716048954e-04
0.000000000000000000e+00 8.611111111111110494e-01 0.000000000000000000e+00 7.716049382716048954e-04
0.000000000000000000e+00 8.888888888888888395e-01 0.000000000000000000e+00 7.716049382716048954e-04
0.000000000000000000e+00 9.166666666666666297e-01 0.000000000000000000e+00 7.716049382716048954e-04
0.000000000000000000e+00 9.444444444444444198e-01 0.000000000000000000e+00 7.716049382716048954e-04
0.000000000000000000e+00 9.722222222222222099e-01 0.000000000000000000e+00 7.716049382716048954e-04
2.777777777777777624e-02 0.000000000000000000e+00 0.000000000000000000e+00 7.716049382716048954e-04
2.777777777777777624e-02 2.777777777777777624e-02 0.000000000000000000e+00 7.716049382716048954e-04
2.777777777777777624e-02 5.555555555555555247e-02 0.000000000000000000e+00 7.716049382716048954e-04
2.777777777777777624e-02 8.333333333333332871e-02 0.000000000000000000e+00 7.716049382716048954e-04
2.777777777777777624e-02 1.111111111111111049e-01 0.000000000000000000e+00 7.716049382716048954e-04
2.777777777777777624e-02 1.388888888888888951e-01 0.000000000000000000e+00 7.716049382716048954e-04
2.777777777777777624e-02 1.666666666666666574e-01 0.000000000000000000e+00 7.716049382716048954e-04
2.777777777777777624e-02 1.944444444444444198e-01 0.000000000000000000e+00 7.716049382716048954e-04
2.777777777777777624e-02 2.222222222222222099e-01 0.000000000000000000e+00 7.716049382716048954e-04
2.777777777777777624e-02 2.500000000000000000e-01 0.000000000000000000e+00 7.716049382716048954e-04
2.777777777777777624e-02 2.777777777777777901e-01 0.000000000000000000e+00 7.716049382716048954e-04
2.777777777777777624e-02 3.055555555555555247e-01 0.000000000000000000e+00 7.716049382716048954e-04
2.777777777777777624e-02 3.333333333333333148e-01 0.000000000000000000e+00 7.716049382716048954e-04
2.777777777777777624e-02 3.611111111111111049e-01 0.000000000000000000e+00 7.716049382716048954e-04
2.777777777777777624e-02 3.888888888888888395e-01 0.000000000000000000e+00 7.716049382716048954e-04
2.777777777777777624e-02 4.166666666666666297e-01 0.000000000000000000e+00 7.716049382716048954e-04
2.777777777777777624e-02 4.444444444444444198e-01 0.000000000000000000e+00 7.716049382716048954e-04
2.777777777777777624e-02 4.722222222222222099e-01 0.000000000000000000e+00 7.716049382716048954e-04
2.777777777777777624e-02 5.000000000000000000e-01 0.000000000000000000e+00 7.716049382716048954e-04
2.777777777777777624e-02 5.277777777777777901e-01 0.000000000000000000e+00 7.716049382716048954e-04
2.777777777777777624e-02 5.555555555555555802e-01 0.000000000000000000e+00 7.716049382716048954e-04
2.777777777777777624e-02 5.833333333333332593e-01 0.000000000000000000e+00 7.716049382716048954e-04
2.777777777777777624e-02 6.111111111111110494e-01 0.000000000000000000e+00 7.716049382716048954e-04
2.777777777777777624e-02 6.388888888888888395e-01 0.000000000000000000e+00 7.716049382716048954e-04
2.777777777777777624e-02 6.666666666666666297e-01 0.000000000000000000e+00 7.716049382716048954e-04
2.777777777777777624e-02 6.944444444444444198e-01 0.000000000000000000e+00 7.716049382716048954e-04
2.777777777777777624e-02 7.222222222222222099e-01 0.000000000000000000e+00 7.716049382716048954e-04
2.777777777777777624e-02 7.500000000000000000e-01 0.000000000000000000e+00 7.716049382716048954e-04
2.777777777777777624e-02 7.777777777777776791e-01 0.000000000000000000e+00 7.716049382716048954e-04
2.777777777777777624e-02 8.055555555555554692e-01 0.000000000000000000e+00 7.716049382716048954e-04
2.777777777777777624e-02 8.333333333333332593e-01 0.000000000000000000e+00 7.716049382716048954e-04
2.777777777777777624e-02 8.611111111111110494e-01 0.000000000000000000e+00 7.716049382716048954e-04
2.777777777777777624e-02 8.888888888888888395e-01 0.000000000000000000e+00 7.716049382716048954e-04
2.777777777777777624e-02 9.166666666666666297e-01 0.000000000000000000e+00 7.716049382716048954e-04
2.777777777777777624e-02 9.444444444444444198e-01 0.000000000000000000e+00 7.716049382716048954e-04
2.777777777777777624e-02 9.722222222222222099e-01 0.000000000000000000e+00 7.716049382716048954e-04
5.555555555555555247e-02 0.000000000000000000e+00 0.000000000000000000e+00 7.716049382716048954e-04
5.555555555555555247e-02 2.777777777777777624e-02 0.000000000000000000e+00 7.716049382716048954e-04
5.555555555555555247e-02 5.555555555555555247e-02 0.000000000000000000e+00 7.716049382716048954e-04
5.555555555555555247e-02 8.333333333333332871e-02 0.000000000000000000e+00 7.716049382716048954e-04
5.555555555555555247e-02 1.111111111111111049e-01 0.000000000000000000e+00 7.716049382716048954e-04
5.555555555555555247e-02 1.388888888888888951e-01 0.000000000000000000e+00 7.716049382716048954e-04
5.555555555555555247e-02 1.666666666666666574e-01 0.000000000000000000e+00 7.716049382716048954e-04
5.555555555555555247e-02 1.944444444444444198e-01 0.000000000000000000e+00 7.716049382716048954e-04
5.555555555555555247e-02 2.222222222222222099e-01 0.000000000000000000e+00 7.716049382716048954e-04
5.555555555555555247e-02 2.500000000000000000e-01 0.000000000000000000e+00 7.716049382716048954e-04
5.555555555555555247e-02 2.777777777777777901e-01 0.000000000000000000e+00 7.716049382716048954e-04
5.555555555555555247e-02 3.055555555555555247e-01 0.000000000000000000e+00 7.716049382716048954e-04
5.555555555555555247e-02 3.333333333333333148e-01 0.000000000000000000e+00 7.716049382716048954e-04
5.555555555555555247e-02 3.611111111111111049e-01 0.000000000000000000e+00 7.716049382716048954e-04
5.555555555555555247e-02 3.888888888888888395e-01 0.000000000000000000e+00 7.716049382716048954e-04
5.555555555555555247e-02 4.166666666666666297e-01 0.000000000000000000e+00 7.716049382716048954e-04
5.555555555555555247e-02 4.444444444444444198e-01 0.000000000000000000e+00 7.716049382716048954e-04
5.555555555555555247e-02 4.722222222222222099e-01 0.000000000000000000e+00 7.716049382716048954e-04
5.555555555555555247e-02 5.000000000000000000e-01 0.000000000000000000e+00 7.716049382716048954e-04
5.555555555555555247e-02 5.277777777777777901e-01 0.000000000000000000e+00 7.716049382716048954e-04
5.555555555555555247e-02 5.555555555555555802e-01 0.000000000000000000e+00 7.716049382716048954e-04
5.555555555555555247e-02 5.833333333333332593e-01 0.000000000000000000e+00 7.716049382716048954e-04
5.555555555555555247e-02 6.111111111111110494e-01 0.000000000000000000e+00 7.716049382716048954e-04
5.555555555555555247e-02 6.388888888888888395e-01 0.000000000000000000e+00 7.716049382716048954e-04
5.555555555555555247e-02 6.666666666666666297e-01 0.000000000000000000e+00 7.716049382716048954e-04
5.555555555555555247e-02 6.944444444444444198e-01 0.000000000000000000e+00 7.716049382716048954e-04
5.555555555555555247e-02 7.222222222222222099e-01 0.000000000000000000e+00 7.716049382716048954e-04
5.555555555555555247e-02 7.500000000000000000e-01 0.000000000000000000e+00 7.716049382716048954e-04
5.555555555555555247e-02 7.777777777777776791e-01 0.000000000000000000e+00 7.716049382716048954e-04
5.555555555555555247e-02 8.055555555555554692e-01 0.000000000000000000e+00 7.716049382716048954e-04
5.555555555555555247e-02 8.333333333333332593e-01 0.000000000000000000e+00 7.716049382716048954e-04
5.555555555555555247e-02 8.611111111111110494e-01 0.000000000000000000e+00 7.716049382716048954e-04
5.555555555555555247e-02 8.888888888888888395e-01 0.000000000000000000e+00 7.716049382716048954e-04
5.555555555555555247e-02 9.166666666666666297e-01 0.000000000000000000e+00 7.716049382716048954e-04
5.555555555555555247e-02 9.444444444444444198e-01 0.000000000000000000e+00 7.716049382716048954e-04
5.555555555555555247e-02 9.722222222222222099e-01 0.000000000000000000e+00 7.716049382716048954e-04
8.333333333333332871e-02 0.000000000000000000e+00 0.000000000000000000e+00 7.716049382716048954e-04
8.333333333333332871e-02 2.777777777777777624e-02 0.000000000000000000e+00 7.716049382716048954e-04
8.333333333333332871e-02 5.555555555555555247e-02 0.000000000000000000e+00 7.716049382716048954e-04
8.333333333333332871e-02 8.333333333333332871e-02 0.000000000000000000e+00 7.716049382716048954e-04
8.333333333333332871e-02 1.111111111111111049e-01 0.000000000000000000e+00 7.716049382716048954e-04
8.333333333333332871e-02 1.388888888888888951e-01 0.000000000000000000e+00 7.716049382716048954e-04
8.333333333333332871e-02 1.666666666666666574e-01 0.000000000000000000e+00 7.716049382716048954e-04
8.333333333333332871e-02 1.944444444444444198e-01 0.000000000000000000e+00 7.716049382716048954e-04
8.333333333333332871e-02 2.222222222222222099e-01 0.000000000000000000e+00 7.716049382716048954e-04
8.333333333333332871e-02 2.500000000000000000e-01 0.000000000000000000e+00 7.716049382716048954e-04
8.333333333333332871e-02 2.777777777777777901e-01 0.000000000000000000e+00 7.716049382716048954e-04
8.333333333333332871e-02 3.055555555555555247e-01 0.000000000000000000e+00 7.716049382716048954e-04
8.333333333333332871e-02 3.333333333333333148e-01 0.000000000000000000e+00 7.716049382716048954e-04
8.333333333333332871e-02 3.611111111111111049e-01 0.000000000000000000e+00 7.716049382716048954e-04
8.333333333333332871e-02 3.888888888888888395e-01 0.000000000000000000e+00 7.716049382716048954e-04
8.333333333333332871e-02 4.166666666666666297e-01 0.000000000000000000e+00 7.716049382716048954e-04
8.333333333333332871e-02 4.444444444444444198e-01 0.000000000000000000e+00 7.716049382716048954e-04
8.333333333333332871e-02 4.722222222222222099e-01 0.000000000000000000e+00 7.716049382716048954e-04
8.333333333333332871e-02 5.000000000000000000e-01 0.000000000000000000e+00 7.716049382716048954e-04
8.333333333333332871e-02 5.277777777777777901e-01 0.000000000000000000e+00 7.716049382716048954e-04
8.333333333333332871e-02 5.555555555555555802e-01 0.000000000000000000e+00 7.716049382716048954e-04
8.333333333333332871e-02 5.833333333333332593e-01 0.000000000000000000e+00 7.716049382716048954e-04
8.333333333333332871e-02 6.111111111111110494e-01 0.000000000000000000e+00 7.716049382716048954e-04
8.333333333333332871e-02 6.388888888888888395e-01 0.000000000000000000e+00 7.716049382716048954e-04
8.333333333333332871e-02 6.666666666666666297e-01 0.000000000000000000e+00 7.716049382716048954e-04
8.333333333333332871e-02 6.944444444444444198e-01 0.000000000000000000e+00 7.716049382716048954e-04
8.333333333333332871e-02 7.222222222222222099e-01 0.000000000000000000e+00 7.716049382716048954e-04
8.333333333333332871e-02 7.500000000000000000e-01 0.000000000000000000e+00 7.716049382716048954e-04
8.333333333333332871e-02 7.777777777777776791e-01 0.000000000000000000e+00 7.716049382716048954e-04
8.333333333333332871e-02 8.055555555555554692e-01 0.000000000000000000e+00 7.716049382716048954e-04
8.333333333333332871e-02 8.333333333333332593e-01 0.000000000000000000e+00 7.716049382716048954e-04
8.333333333333332871e-02 8.611111111111110494e-01 0.000000000000000000e+00 7.716049382716048954e-04
8.333333333333332871e-02 8.888888888888888395e-01 0.000000000000000000e+00 7.716049382716048954e-04
8.333333333333332871e-02 9.166666666666666297e-01 0.000000000000000000e+00 7.716049382716048954e-04
8.333333333333332871e-02 9.444444444444444198e-01 0.000000000000000000e+00 7.716049382716048954e-04
8.333333333333332871e-02 9.722222222222222099e-01 0.000000000000000000e+00 7.716049382716048954e-04
1.111111111111111049e-01 0.000000000000000000e+00 0.000000000000000000e+00 7.716049382716048954e-04
1.111111111111111049e-01 2.777777777777777624e-02 0.000000000000000000e+00 7.716049382716048954e-04
1.111111111111111049e-01 5.555555555555555247e-02 0.000000000000000000e+00 7.716049382716048954e-04
1.111111111111111049e-01 8.333333333333332871e-02 0.000000000000000000e+00 7.716049382716048954e-04
1.111111111111111049e-01 1.111111111111111049e-01 0.000000000000000000e+00 7.716049382716048954e-04
1.111111111111111049e-01 1.388888888888888951e-01 0.000000000000000000e+00 7.716049382716048954e-04
1.111111111111111049e-01 1.666666666666666574e-01 0.000000000000000000e+00 7.716049382716048954e-04
1.111111111111111049e-01 1.944444444444444198e-01 0.000000000000000000e+00 7.716049382716048954e-04
1.111111111111111049e-01 2.222222222222222099e-01 0.000000000000000000e+00 7.716049382716048954e-04
1.111111111111111049e-01 2.500000000000000000e-01 0.000000000000000000e+00 7.716049382716048954e-04
1.111111111111111049e-01 2.777777777777777901e-01 0.000000000000000000e+00 7.716049382716048954e-04
1.111111111111111049e-01 3.055555555555555247e-01 0.000000000000000000e+00 7.716049382716048954e-04
1.111111111111111049e-01 3.333333333333333148e-01 0.000000000000000000e+00 7.716049382716048954e-04
1.111111111111111049e-01 3.611111111111111049e-01 0.000000000000000000e+00 7.716049382716048954e-04
1.111111111111111049e-01 3.888888888888888395e-01 0.000000000000000000e+00 7.716049382716048954e-04
1.111111111111111049e-01 4.166666666666666297e-01 0.000000000000000000e+00 7.716049382716048954e-04
1.111111111111111049e-01 4.444444444444444198e-01 0.000000000000000000e+00 7.716049382716048954e-04
1.111111111111111049e-01 4.722222222222222099e-01 0.000000000000000000e+00 7.716049382716048954e-04
1.111111111111111049e-01 5.000000000000000000e-01 0.000000000000000000e+00 7.716049382716048954e-04
1.111111111111111049e-01 5.277777777777777901e-01 0.000000000000000000e+00 7.716049382716048954e-04
1.111111111111111049e-01 5.555555555555555802e-01 0.000000000000000000e+00 7.716049382716048954e-04
1.111111111111111049e-01 5.833333333333332593e-01 0.000000000000000000e+00 7.716049382716048954e-04
1.111111111111111049e-01 6.111111111111110494e-01 0.000000000000000000e+00 7.716049382716048954e-04
1.111111111111111049e-01 6.388888888888888395e-01 0.000000000000000000e+00 7.716049382716048954e-04
1.111111111111111049e-01 6.666666666666666297e-01 0.000000000000000000e+00 7.716049382716048954e-04
1.111111111111111049e-01 6.944444444444444198e-01 0.000000000000000000e+00 7.716049382716048954e-04
1.111111111111111049e-01 7.222222222222222099e-01 0.000000000000000000e+00 7.716049382716048954e-04
1.111111111111111049e-01 7.500000000000000000e-01 0.000000000000000000e+00 7.716049382716048954e-04
1.111111111111111049e-01 7.777777777777776791e-01 0.000000000000000000e+00 7.716049382716048954e-04
1.111111111111111049e-01 8.055555555555554692e-01 0.000000000000000000e+00 7.716049382716048954e-04
1.111111111111111049e-01 8.333333333333332593e-01 0.000000000000000000e+00 7.716049382716048954e-04
1.111111111111111049e-01 8.611111111111110494e-01 0.000000000000000000e+00 7.716049382716048954e-04
1.111111111111111049e-01 8.888888888888888395e-01 0.000000000000000000e+00 7.716049382716048954e-04
1.111111111111111049e-01 9.166666666666666297e-01 0.000000000000000000e+00 7.716049382716048954e-04
1.111111111111111049e-01 9.444444444444444198e-01 0.000000000000000000e+00 7.716049382716048954e-04
1.111111111111111049e-01 9.722222222222222099e-01 0.000000000000000000e+00 7.716049382716048954e-04
1.388888888888888951e-01 0.000000000000000000e+00 0.000000000000000000e+00 7.716049382716048954e-04
1.388888888888888951e-01 2.777777777777777624e-02 0.000000000000000000e+00 7.716049382716048954e-04
1.388888888888888951e-01 5.555555555555555247e-02 0.000000000000000000e+00 7.716049382716048954e-04
1.388888888888888951e-01 8.333333333333332871e-02 0.000000000000000000e+00 7.716049382716048954e-04
1.388888888888888951e-01 1.111111111111111049e-01 0.000000000000000000e+00 7.716049382716048954e-04
1.388888888888888951e-01 1.388888888888888951e-01 0.000000000000000000e+00 7.716049382716048954e-04
1.388888888888888951e-01 1.666666666666666574e-01 0.000000000000000000e+00 7.716049382716048954e-04
1.388888888888888951e-01 1.944444444444444198e-01 0.000000000000000000e+00 7.716049382716048954e-04
1.388888888888888951e-01 2.222222222222222099e-01 0.000000000000000000e+00 7.716049382716048954e-04
1.388888888888888951e-01 2.500000000000000000e-01 0.000000000000000000e+00 7.716049382716048954e-04
1.388888888888888951e-01 2.777777777777777901e-01 0.000000000000000000e+00 7.716049382716048954e-04
1.388888888888888951e-01 3.055555555555555247e-01 0.000000000000000000e+00 7.716049382716048954e-04
1.388888888888888951e-01 3.333333333333333148e-01 0.000000000000000000e+00 7.716049382716048954e-04
1.388888888888888951e-01 3.611111111111111049e-01 0.000000000000000000e+00 7.716049382716048954e-04
1.388888888888888951e-01 3.888888888888888395e-01 0.000000000000000000e+00 7.716049382716048954e-04
1.388888888888888951e-01 4.166666666666666297e-01 0.000000000000000000e+00 7.716049382716048954e-04
1.388888888888888951e-01 4.444444444444444198e-01 0.000000000000000000e+00 7.716049382716048954e-04
1.388888888888888951e-01 4.722222222222222099e-01 0.000000000000000000e+00 7.716049382716048954e-04
1.388888888888888951e-01 5.000000000000000000e-01 0.000000000000000000e+00 7.716049382716048954e-04
1.388888888888888951e-01 5.277777777777777901e-01 0.000000000000000000e+00 7.716049382716048954e-04
1.388888888888888951e-01 5.555555555555555802e-01 0.000000000000000000e+00 7.716049382716048954e-04
1.388888888888888951e-01 5.833333333333332593e-01 0.000000000000000000e+00 7.716049382716048954e-04
1.388888888888888951e-01 6.111111111111110494e-01 0.000000000000000000e+00 7.716049382716048954e-04
1.388888888888888951e-01 6.388888888888888395e-01 0.000000000000000000e+00 7.716049382716048954e-04
1.388888888888888951e-01 6.666666666666666297e-01 0.000000000000000000e+00 7.716049382716048954e-04
1.388888888888888951e-01 6.944444444444444198e-01 0.000000000000000000e+00 7.716049382716048954e-04
1.388888888888888951e-01 7.222222222222222099e-01 0.000000000000000000e+00 7.716049382716048954e-04
1.388888888888888951e-01 7.500000000000000000e-01 0.000000000000000000e+00 7.716049382716048954e-04
1.388888888888888951e-01 7.777777777777776791e-01 0.000000000000000000e+00 7.716049382716048954e-04
1.388888888888888951e-01 8.055555555555554692e-01 0.000000000000000000e+00 7.716049382716048954e-04
1.388888888888888951e-01 8.333333333333332593e-01 0.000000000000000000e+00 7.716049382716048954e-04
1.388888888888888951e-01 8.611111111111110494e-01 0.000000000000000000e+00 7.716049382716048954e-04
1.388888888888888951e-01 8.888888888888888395e-01 0.000000000000000000e+00 7.716049382716048954e-04
1.388888888888888951e-01 9.166666666666666297e-01 0.000000000000000000e+00 7.716049382716048954e-04
1.388888888888888951e-01 9.444444444444444198e-01 0.000000000000000000e+00 7.716049382716048954e-04
1.388888888888888951e-01 9.722222222222222099e-01 0.000000000000000000e+00 7.716049382716048954e-04
1.666666666666666574e-01 0.000000000000000000e+00 0.000000000000000000e+00 7.716049382716048954e-04
1.666666666666666574e-01 2.777777777777777624e-02 0.000000000000000000e+00 7.716049382716048954e-04
1.666666666666666574e-01 5.555555555555555247e-02 0.000000000000000000e+00 7.716049382716048954e-04
1.666666666666666574e-01 8.333333333333332871e-02 0.000000000000000000e+00 7.716049382716048954e-04
1.666666666666666574e-01 1.111111111111111049e-01 0.000000000000000000e+00 7.716049382716048954e-04
1.666666666666666574e-01 1.388888888888888951e-01 0.000000000000000000e+00 7.716049382716048954e-04
1.666666666666666574e-01 1.666666666666666574e-01 0.000000000000000000e+00 7.716049382716048954e-04
1.666666666666666574e-01 1.944444444444444198e-01 0.000000000000000000e+00 7.716049382716048954e-04
1.666666666666666574e-01 2.222222222222222099e-01 0.000000000000000000e+00 7.716049382716048954e-04
1.666666666666666574e-01 2.500000000000000000e-01 0.000000000000000000e+00 7.716049382716048954e-04
1.666666666666666574e-01 2.777777777777777901e-01 0.000000000000000000e+00 7.716049382716048954e-04
1.666666666666666574e-01 3.055555555555555247e-01 0.000000000000000000e+00 7.716049382716048954e-04
1.666666666666666574e-01 3.333333333333333148e-01 0.000000000000000000e+00 7.716049382716048954e-04
1.666666666666666574e-01 3.611111111111111049e-01 0.000000000000000000e+00 7.716049382716048954e-04
1.666666666666666574e-01 3.888888888888888395e-01 0.000000000000000000e+00 7.716049382716048954e-04
1.666666666666666574e-01 4.166666666666666297e-01 0.000000000000000000e+00 7.716049382716048954e-04
1.666666666666666574e-01 4.444444444444444198e-01 0.000000000000000000e+00 7.716049382716048954e-04
1.666666666666666574e-01 4.722222222222222099e-01 0.000000000000000000e+00 7.716049382716048954e-04
1.666666666666666574e-01 5.000000000000000000e-01 0.000000000000000000e+00 7.716049382716048954e-04
1.666666666666666574e-01 5.277777777777777901e-01 0.000000000000000000e+00 7.716049382716048954e-04
1.666666666666666574e-01 5.555555555555555802e-01 0.000000000000000000e+00 7.716049382716048954e-04
1.666666666666666574e-01 5.833333333333332593e-01 0.000000000000000000e+00 7.716049382716048954e-04
1.666666666666666574e-01 6.111111111111110494e-01 0.000000000000000000e+00 7.716049382716048954e-04
1.666666666666666574e-01 6.388888888888888395e-01 0.000000000000000000e+00 7.716049382716048954e-04
1.666666666666666574e-01 6.666666666666666297e-01 0.000000000000000000e+00 7.716049382716048954e-04
1.666666666666666574e-01 6.944444444444444198e-01 0.000000000000000000e+00 7.716049382716048954e-04
1.666666666666666574e-01 7.222222222222222099e-01 0.000000000000000000e+00 7.716049382716048954e-04
1.666666666666666574e-01 7.500000000000000000e-01 0.000000000000000000e+00 7.716049382716048954e-04
1.666666666666666574e-01 7.777777777777776791e-01 0.000000000000000000e+00 7.716049382716048954e-04
1.666666666666666574e-01 8.055555555555554692e-01 0.000000000000000000e+00 7.716049382716048954e-04
1.666666666666666574e-01 8.333333333333332593e-01 0.000000000000000000e+00 7.716049382716048954e-04
1.666666666666666574e-01 8.611111111111110494e-01 0.000000000000000000e+00 7.716049382716048954e-04
1.666666666666666574e-01 8.888888888888888395e-01 0.000000000000000000e+00 7.716049382716048954e-04
1.666666666666666574e-01 9.166666666666666297e-01 0.000000000000000000e+00 7.716049382716048954e-04
1.666666666666666574e-01 9.444444444444444198e-01 0.000000000000000000e+00 7.716049382716048954e-04
1.666666666666666574e-01 9.722222222222222099e-01 0.000000000000000000e+00 7.716049382716048954e-04
1.944444444444444198e-01 0.000000000000000000e+00 0.000000000000000000e+00 7.716049382716048954e-04
1.944444444444444198e-01 2.777777777777777624e-02 0.000000000000000000e+00 7.716049382716048954e-04
1.944444444444444198e-01 5.555555555555555247e-02 0.000000000000000000e+00 7.716049382716048954e-04
1.944444444444444198e-01 8.333333333333332871e-02 0.000000000000000000e+00 7.716049382716048954e-04
1.944444444444444198e-01 1.111111111111111049e-01 0.000000000000000000e+00 7.716049382716048954e-04
1.944444444444444198e-01 1.388888888888888951e-01 0.000000000000000000e+00 7.716049382716048954e-04
1.944444444444444198e-01 1.666666666666666574e-01 0.000000000000000000e+00 7.716049382716048954e-04
1.944444444444444198e-01 1.944444444444444198e-01 0.000000000000000000e+00 7.716049382716048954e-04
1.944444444444444198e-01 2.222222222222222099e-01 0.000000000000000000e+00 7.716049382716048954e-04
1.944444444444444198e-01 2.500000000000000000e-01 0.000000000000000000e+00 7.716049382716048954e-04
1.944444444444444198e-01 2.777777777777777901e-01 0.000000000000000000e+00 7.716049382716048954e-04
1.944444444444444198e-01 3.055555555555555247e-01 0.000000000000000000e+00 7.716049382716048954e-04
1.944444444444444198e-01 3.333333333333333148e-01 0.000000000000000000e+00 7.716049382716048954e-04
1.944444444444444198e-01 3.611111111111111049e-01 0.000000000000000000e+00 7.716049382716048954e-04
1.944444444444444198e-01 3.888888888888888395e-01 0.000000000000000000e+00 7.716049382716048954e-04
1.944444444444444198e-01 4.166666666666666297e-01 0.000000000000000000e+00 7.716049382716048954e-04
1.944444444444444198e-01 4.444444444444444198e-01 0.000000000000000000e+00 7.716049382716048954e-04
1.944444444444444198e-01 4.722222222222222099e-01 0.000000000000000000e+00 7.716049382716048954e-04
1.944444444444444198e-01 5.000000000000000000e-01 0.000000000000000000e+00 7.716049382716048954e-04
1.944444444444444198e-01 5.277777777777777901e-01 0.000000000000000000e+00 7.716049382716048954e-04
1.944444444444444198e-01 5.555555555555555802e-01 0.000000000000000000e+00 7.716049382716048954e-04
1.944444444444444198e-01 5.833333333333332593e-01 0.000000000000000000e+00 7.716049382716048954e-04
1.944444444444444198e-01 6.111111111111110494e-01 0.000000000000000000e+00 7.716049382716048954e-04
1.944444444444444198e-01 6.388888888888888395e-01 0.000000000000000000e+00 7.716049382716048954e-04
1.944444444444444198e-01 6.666666666666666297e-01 0.000000000000000000e+00 7.716049382716048954e-04
1.944444444444444198e-01 6.944444444444444198e-01 0.000000000000000000e+00 7.716049382716048954e-04
1.944444444444444198e-01 7.222222222222222099e-01 0.000000000000000000e+00 7.716049382716048954e-04
1.944444444444444198e-01 7.500000000000000000e-01 0.000000000000000000e+00 7.716049382716048954e-04
1.944444444444444198e-01 7.777777777777776791e-01 0.000000000000000000e+00 7.716049382716048954e-04
1.944444444444444198e-01 8.055555555555554692e-01 0.000000000000000000e+00 7.716049382716048954e-04
1.944444444444444198e-01 8.333333333333332593e-01 0.000000000000000000e+00 7.716049382716048954e-04
1.944444444444444198e-01 8.611111111111110494e-01 0.000000000000000000e+00 7.716049382716048954e-04
1.944444444444444198e-01 8.888888888888888395e-01 0.000000000000000000e+00 7.716049382716048954e-04
1.944444444444444198e-01 9.166666666666666297e-01 0.000000000000000000e+00 7.716049382716048954e-04
1.944444444444444198e-01 9.444444444444444198e-01 0.000000000000000000e+00 7.716049382716048954e-04
1.944444444444444198e-01 9.722222222222222099e-01 0.000000000000000000e+00 7.716049382716048954e-04
2.222222222222222099e-01 0.000000000000000000e+00 0.000000000000000000e+00 7.716049382716048954e-04
2.222222222222222099e-01 2.777777777777777624e-02 0.000000000000000000e+00 7.716049382716048954e-04